job_count = 26 ;
duration = [|10, 9|5, 1|10, 3|18, 4|13, 5|7, 7|9, 6|12, 6|10, 3|16, 4|8, 8|10, 8|14, 4|18, 7|6, 6|6, 2|18, 5|12, 5|19, 5|15, 3|2, 5|10, 9|7, 3|5, 3|4, 4|17, 5|] ;
machine_count = 2 ;
cost = [|12, 37|17, 20|17, 25|12, 36|18, 29|10, 30|13, 25|11, 26|14, 21|17, 21|14, 36|18, 27|11, 29|16, 25|18, 23|14, 30|18, 33|18, 29|14, 36|18, 26|18, 38|11, 36|16, 34|13, 22|11, 20|19, 29|] ;
deadline = [65, 65, 65, 65, 65, 65, 65, 65, 65, 65, 65, 65, 65, 65, 65, 65, 65, 65, 65, 65, 65, 65, 65, 65, 65, 65] ;
release = [0, 0, 0, 0, 0, 0, 0, 0, 0, 0, 0, 0, 0, 0, 0, 0, 0, 0, 0, 0, 0, 0, 0, 0, 0, 0] ;
resource = [|8, 8|8, 8|5, 5|1, 1|8, 8|6, 6|1, 1|7, 7|5, 5|3, 3|9, 9|3, 3|2, 2|1, 1|3, 3|7, 7|9, 9|7, 7|5, 5|2, 2|3, 3|6, 6|2, 2|5, 5|6, 6|5, 5|] ;
capacities = [10, 10] ;
